Optimize a model with 1601 rows, 1680 columns and 10608 nonzeros
Model has 1 quadratic constraint
Coefficient statistics:
  Matrix range    [1e+00, 4e+01]
  Objective range [1e+02, 7e+02]
  Bounds range    [1e+00, 4e+01]
  RHS range       [1e+00, 4e+01]
Presolve removed 0 rows and 42 columns
Presolve time: 0.04s
Presolved: 3123 rows, 3159 columns, 16692 nonzeros
Variable types: 0 continuous, 3159 integer (3120 binary)

Root relaxation: objective 2.180000e+02, 42 iterations, 0.02 seconds

    Nodes    |    Current Node    |     Objective Bounds      |     Work
 Expl Unexpl |  Obj  Depth IntInf | Incumbent    BestBd   Gap | It/Node Time

     0     0  218.00000    0   22          -  218.00000      -     -    0s
     0     0  218.00000    0   23          -  218.00000      -     -    0s
     0     0  218.00000    0   23          -  218.00000      -     -    0s
     0     0  218.00000    0   23          -  218.00000      -     -    0s
     0     0  218.00000    0   24          -  218.00000      -     -    0s
     0     0  218.00000    0   26          -  218.00000      -     -    0s
     0     0  218.00000    0   26          -  218.00000      -     -    0s
H    0     0                    2787.0000000  218.00000  92.2%     -    0s
     0     2  218.00000    0   26 2787.00000  218.00000  92.2%     -    0s
H 1026  1026                    2273.0000000  218.00000  90.4%   1.3    4s
  1148  1150  218.00000 1148   40 2273.00000  218.00000  90.4%   1.3    5s
H 1526  1422                    2015.0000000 1802.26539  10.6%   2.2    7s
* 2534  1351              25    2002.0000000 1913.26924  4.43%   7.7    9s
  2901  1254 1964.00000   27    7 2002.00000 1924.19817  3.89%   9.3   10s

Cutting planes:
  Learned: 8
  Implied bound: 4

Explored 5096 nodes (61395 simplex iterations) in 14.74 seconds
Thread count was 1 (of 4 available processors)

Optimal solution found (tolerance 1.00e-04)
Best objective 2.002000000000e+03, best bound 2.002000000000e+03, gap 0.0%
2002
(2,0) (0,7) (3,1) (1,34) (15,2) (2,19) (13,3) (7,12) (7,14) (9,22) (30,9) (19,12) (12,31) (31,13) (24,14) (14,26) (22,15) (26,16) (16,30) (34,24) 
